NAME : amz2156.149711_145211.tour
COMMENT : Cost = 149711_145211
COMMENT : Found by LKH-AMZ [Keld Helsgaun] Sun May 11 15:08:09 2025
COMMENT : TW viol.: 0 #: 0
TYPE : TOUR
DIMENSION : 154
TOUR_SECTION
44
102
114
141
61
77
78
93
53
59
40
67
48
11
112
110
96
43
51
136
38
89
126
68
94
37
106
17
97
50
29
148
100
34
144
45
116
46
95
55
30
98
76
18
150
71
74
26
86
63
147
1
120
28
41
52
92
24
84
47
123
117
105
23
16
54
107
140
88
133
142
80
15
62
2
32
113
83
64
6
42
111
118
12
82
72
131
5
91
25
119
19
138
135
13
101
69
146
36
20
66
137
73
27
56
14
57
8
85
99
124
81
33
145
35
4
151
87
134
49
103
127
39
132
129
31
125
104
128
58
143
130
139
22
108
121
115
152
21
154
7
153
65
122
10
109
70
79
149
9
75
3
60
90
-1
EOF
